382,-6
468,298
368,305
366,177
441,528
611,309
504,378
282,277
261,406
441,528
732,731
912,860
1066,467
880,342
469,194
441,406
635,548
616,820
681,766
732,731
963,794
635,548
694,380
850,237
1194,240
1101,406
681,556
639,672
1066,467
1155,331
1066,345
880,342
611,309
681,556
918,443
1066,345
607,178
448,173
382,-6
436,-75
681,46
998,-30
732,81
927,67
681,46
732,81
441,406
